 start cl2
 title "Chlorine in 6-31g basis set"

 geometry units au noautoz
   Cl      0.00000000    0.00000000    0.00000000
   Cl      0.00000000    0.00000000    1.50          
 end
 basis
   Cl library 6-31g
 end
 dft
  xc  b3lyp
 end
 task dft
