title "nwchem"

permanent_dir /home/ruslan/work/Master-s-thesis/potential_curves/nwchem

scratch_dir /home/ruslan/work/Master-s-thesis/potential_curves/nwchem

start nwchem

geometry units angstrom nocenter noautosym noautoz
  F  0.0000000000000000e+00 0.0000000000000000e+00 0.0000000000000000e+00
end

basis noprint
   * library sto-6g
end

dft
  iterations 500
  xc pbe0
  mult 2
end



task dft energy

