title "nwchem"

permanent_dir /home/ruslan/work/Master-s-thesis/NH3_molecule/ase-nwchem/nwchem

scratch_dir /home/ruslan/work/Master-s-thesis/NH3_molecule/ase-nwchem/nwchem

start nwchem

geometry units angstrom nocenter noautosym noautoz
  N  -1.7476847705578531e+00 1.4188015957526981e-01 5.2560148429875164e-02
  H  -7.0042793222521094e-01 1.8940425189194914e-02 -2.1322943847857833e-02
  H  -2.0291500156306670e+00 -8.0283980335811089e-01 4.3414644099946170e-01
  H  -2.0291569513122667e+00 3.5371420638456504e-02 -9.6073314945882027e-01
end

basis noprint
   * library sto-6g
end

dft
  iterations 500
  xc hse03
  mult 1
end



task dft gradient

