title "nwchem"

permanent_dir /home/ruslan/work/Master-s-thesis/NH3_molecule/ase-nwchem/nwchem

scratch_dir /home/ruslan/work/Master-s-thesis/NH3_molecule/ase-nwchem/nwchem

start nwchem

geometry units angstrom nocenter noautosym noautoz
  N  -1.7463727424922162e+00 1.3869761792207330e-01 5.0651582912638105e-02
  H  -6.9875430521506954e-01 2.0637843008976562e-02 -2.0306952199788002e-02
  H  -2.0306384146747041e+00 -8.0310004979301863e-01 4.3624832566891941e-01
  H  -2.0306542493985007e+00 3.7117640079851223e-02 -9.6193810828369353e-01
end

basis noprint
   * library sto-3g
end

dft
  iterations 500
  xc pbe0
  mult 1
end



task dft gradient

