title "nwchem"

permanent_dir /home/ruslan/work/Master-s-thesis/NH3_molecule/ase-nwchem/nwchem

scratch_dir /home/ruslan/work/Master-s-thesis/NH3_molecule/ase-nwchem/nwchem

start nwchem

geometry units angstrom nocenter noautosym noautoz
  N  -1.7462517243086606e+00 1.3841143947142101e-01 5.0479569660936911e-02
  H  -6.9645485233136595e-01 2.1437782781845324e-02 -1.9825795967033884e-02
  H  -2.0318504726257918e+00 -8.0446368992450257e-01 4.3793708674886295e-01
  H  -2.0318641055639786e+00 3.7964739176900776e-02 -9.6393898284931956e-01
end

basis noprint
   * library sto-6g
end

dft
  iterations 500
  xc b3lyp
  mult 1
end



task dft gradient

